NAME:        LCVRP-N-15-k-6.vrp
COMMENT : 	"Generated by Salomons, Philip (2023)"
TYPE : 	CVRP
DIMENSION : 	16
EDGE_WEIGHT_TYPE : 	EUC_2D	
CAPACITY : 	221
NODE_COORD_SECTION
1    500    500
2    863    128
3    52    942
4    723    924
5    866    101
6    674    787
7    510    212
8    969    261
9    466    277
10    161    429
11    44    416
12    710    591
13    690    597
14    813    509
15    656    493
16    433    209
DEMAND_SECTION
1    0
2    50
3    79
4    55
5    51
6    72
7    100
8    99
9    85
10    82
11    71
12    95
13    56
14    59
15    65
16    86
DEPOT_SECTION
1
-1
EOF
